data/MCDM/NO_CORR/GEN_FROM_60/18_ITEMS_1000_GEN/K5018W17.KNP.mps
NAME          BLANK   
ROWS
 N  OBJROW
 L  R0000000
COLUMNS
    C0000000  OBJROW     -285.         R0000000  828.        
    C0000001  OBJROW     -277.         R0000000  778.        
    C0000002  OBJROW     -737.         R0000000  945.        
    C0000003  OBJROW     -417.         R0000000  993.        
    C0000004  OBJROW     -216.         R0000000  781.        
    C0000005  OBJROW     -115.         R0000000  254.        
    C0000006  OBJROW     -368.         R0000000  835.        
    C0000007  OBJROW     -274.         R0000000  604.        
    C0000008  OBJROW     -154.         R0000000  165.        
    C0000009  OBJROW     -107.         R0000000  550.        
    C0000010  OBJROW     -610.         R0000000  70.         
    C0000011  OBJROW     -397.         R0000000  304.        
    C0000012  OBJROW     -414.         R0000000  411.        
    C0000013  OBJROW     -880.         R0000000  185.        
    C0000014  OBJROW     -649.         R0000000  274.        
    C0000015  OBJROW     -874.         R0000000  521.        
    C0000016  OBJROW     -121.         R0000000  16.         
    C0000017  OBJROW     -462.         R0000000  67.         
RHS
    RHS       R0000000  13735.      
BOUNDS
 BV BOUND     C0000000  1.          
 BV BOUND     C0000001  1.          
 BV BOUND     C0000002  1.          
 BV BOUND     C0000003  1.          
 BV BOUND     C0000004  1.          
 BV BOUND     C0000005  1.          
 BV BOUND     C0000006  1.          
 BV BOUND     C0000007  1.          
 BV BOUND     C0000008  1.          
 BV BOUND     C0000009  1.          
 BV BOUND     C0000010  1.          
 BV BOUND     C0000011  1.          
 BV BOUND     C0000012  1.          
 BV BOUND     C0000013  1.          
 BV BOUND     C0000014  1.          
 BV BOUND     C0000015  1.          
 BV BOUND     C0000016  1.          
 BV BOUND     C0000017  1.          
ENDATA
