data/MCDM/NO_CORR/GEN_FROM_60/18_ITEMS_1000_GEN/K5018W17.KNP.txt
N 18
M 19
LC 18
LC 19
LC 20
LC 21
LC 22
LC 23
LC 24
LC 25
LC 26
LC 27
LC 28
LC 29
LC 30
LC 31
LC 32
LC 33
LC 34
LC 35
LR 1
LR 2
LR 3
LR 4
LR 5
LR 6
LR 7
LR 8
LR 9
LR 10
LR 11
LR 12
LR 13
LR 14
LR 15
LR 16
LR 17
LR 18
LR 19
LO -285
LO -277
LO -737
LO -417
LO -216
LO -115
LO -368
LO -274
LO -154
LO -107
LO -610
LO -397
LO -414
LO -880
LO -649
LO -874
LO -121
LO -462
OS 1
IC 975
IC 96
IC 495
IC 323
IC 41
IC 873
IC 353
IC 711
IC 39
IC 151
IC 51
IC 539
IC 918
IC 660
IC 991
IC 556
IC 839
IC 509
IB 4560
